&control
    calculation='scf',
    prefix='Ru',
    outdir='./out'
/
&system
    ibrav=4, celldm(1)=5.37, celldm(3)=1.58, nat=1, ntyp=1, ecutwfc=30.0, ecutrho=240.0,
/
&electrons
    conv_thr=1.0d-8,
/
ATOMIC_SPECIES
Ru 101.07 Ru.pbesol-spn-rrkjus.UPF
ATOMIC_POSITIONS (angstrom)
Ru 0.0 0.0 0.0
K_POINTS automatic
6 6 6 0 0 0
